RAW/XT/fspd-long/X-n139-k10.vrp_seed-4.out
13052	25.149	345.885
