RAW/XT/fspd-long/X-n139-k10.vrp_seed-4.sol
Route #1: 76 122 138 55 46 43 77 106 82 105 111 75 54
Route #2: 89 104 86 136 116 68 83 1 18 21 103 28 63 56
Route #3: 109 10 74 13 97 31 50 123 27 115 34 131 38 62 70 88
Route #4: 79 121 73 120 133 64 127 130 93 132 107 92 41 80 78 35 58 110 45 20
Route #5: 16 32 114 137 112 22 94 69 108 26 9 23 4 124
Route #6: 81 33 135 14 11 101 128 119 47 17 37 40 134 102
Route #7: 118 85 24 25 125 36 129 53 49 2 99 52 126 95
Route #8: 98
Route #9: 87 117 72 12 90 113 96 5 6 61 19 66 48 65 44 29
Route #10: 3 7 30 84 51 39 57 8 15 60 59 42 67 100 71 91
Cost 13052.000000